************************************************************************
file with basedata            : md131_.bas
initial value random generator: 966290438
************************************************************************
projects                      :  1
jobs (incl. supersource/sink ):  25
horizon                       :  117
RESOURCES
  - renewable                 :  10  R
  - nonrenewable              :  0   N
  - doubly constrained        :  0   D
************************************************************************
PROJECT INFORMATION:
pronr.  #jobs rel.date duedate tardcost  MPM-Time
    1     22      0       40       10       22
************************************************************************
PRECEDENCE RELATIONS:
jobnr.    #modes  #successors   successors
   1        1          4           2   8   14   19
   2        3          2           3   4
   3        3          1           5
   4        3          1           5
   5        3          1           6
   6        3          1           7
   7        3          1          25
   8        3          2           9  10
   9        3          1          11
  10        3          1          11
  11        3          1          12
  12        3          1          13
  13        3          1          25
  14        3          1          15
  15        3          1          16
  16        3          1          17
  17        3          1          18
  18        3          1          25
  19        3          1          20
  20        3          2          21  24
  21        3          1          22
  22        3          1          23
  23        3          1          25
  24        3          1          23
  25        1          0        
************************************************************************
REQUESTS/DURATIONS:
jobnr. mode duration  R 1  R 2  R 3  R 4  R 5  R 6  R 7  R 8
-------------------------------------------------------------
  1      1     0       0    0    0    0    0    0    0    0
  2      1     6       1    1    0    2    0    3    0    0
         2     4       1    2    3    0    0    2    0    0
         3     8       5    0    0    2    0    0    4    0
  3      1     2       0    0    1    0    0    0    0    0
         2     8       5    0    0    0    0    0    0    0
         3     8       5    0    0    0    0    0    0    0
  4      1     2       0    0    0    1    2    0    0    0
         2     8       5    0    0    0    0    0    0    0
         3     8       5    0    0    0    0    0    0    0
  5      1     4       0    0    0    0    2    0    2    0
         2     8       0    0    0    0    2    2    0    0
         3     8       5    0    0    0    0    0    0    0
  6      1     2       0    0    0    0    0    0    0    2
         2     8       5    0    0    0    0    0    0    0
         3     8       5    0    0    0    0    0    0    0
  7      1     1       0    0    0    0    0    0    0    0
         2     8       5    0    0    0    0    0    0    0
         3     8       5    0    0    0    0    0    0    0
  8      1     6       0    3    0    0    0    0    0    0
         2     8       5    0    0    0    0    0    0    0
         3     8       5    0    0    0    0    0    0    0
  9      1     4       0    0    1    0    0    0    0    0
         2     8       5    0    0    0    0    0    0    0
         3     8       5    0    0    0    0    0    0    0
 10      1     4       0    0    0    0    2    0    2    0
         2     8       0    0    0    0    2    2    0    0
         3     8       5    0    0    0    0    0    0    0
 11      1     8       0    0    0    0    4    0    0    0
         2     8       5    0    0    0    0    0    0    0
         3     8       5    0    0    0    0    0    0    0
 12      1     2       0    0    0    0    0    0    0    3
         2     3       0    0    0    0    0    0    0    2
         3     8       5    0    0    0    0    0    0    0
 13      1     2       0    0    0    0    0    0    0    0
         2     8       5    0    0    0    0    0    0    0
         3     8       5    0    0    0    0    0    0    0
 14      1     3       1    1    0    0    0    0    0    0
         2     8       5    0    0    0    0    0    0    0
         3     8       5    0    0    0    0    0    0    0
 15      1     2       0    0    0    1    1    0    0    0
         2     8       5    0    0    0    0    0    0    0
         3     8       5    0    0    0    0    0    0    0
 16      1     5       0    0    0    0    2    0    2    0
         2     8       0    0    0    0    2    2    0    0
         3     8       5    0    0    0    0    0    0    0
 17      1     1       0    0    0    0    0    0    0    2
         2     8       5    0    0    0    0    0    0    0
         3     8       5    0    0    0    0    0    0    0
 18      1     1       0    0    0    0    0    0    0    0
         2     8       5    0    0    0    0    0    0    0
         3     8       5    0    0    0    0    0    0    0
 19      1     1       0    0    1    0    0    0    0    0
         2     8       5    0    0    0    0    0    0    0
         3     8       5    0    0    0    0    0    0    0
 20      1     6       0    0    0    0    2    0    0    0
         2     8       5    0    0    0    0    0    0    0
         3     8       5    0    0    0    0    0    0    0
 21      1     2       0    0    0    0    0    0    0    3
         2     8       5    0    0    0    0    0    0    0
         3     8       5    0    0    0    0    0    0    0
 22      1     2       0    0    0    0    0    0    0    2
         2     8       5    0    0    0    0    0    0    0
         3     8       5    0    0    0    0    0    0    0
 23      1     1       0    0    0    0    0    0    0    0
         2     8       5    0    0    0    0    0    0    0
         3     8       5    0    0    0    0    0    0    0
 24      1     2       0    2    0    0    0    0    0    0
         2     8       5    0    0    0    0    0    0    0
         3     8       5    0    0    0    0    0    0    0
 25      1     0       0    0    0    0    0    0    0    0
************************************************************************
RESOURCEAVAILABILITIES:
  R 1  R 2  R 3  R 4  R 5  R 6  R 7  R 8  R 9  R 10
   4    4    2    4    8    2    2    4    2    4
*************************************************************************
